results/x-long/X-n190-k8.vrp_seed-39.vrp.sol
Route #1: 37 29 83 182 160 184 1 165 88 44 127 172
Route #2: 106 119 49 26 117 175 11 122 82 116 60 79 17 155 7 162 33 107 113 158 121 75 93 51 67 16 14
Route #3: 170 166 157 173 132 134 161 74 111 23 164 69 178 21 50 94 144 115 145 81 92 46 31
Route #4: 10 159 142 104 89 35 6 38 2 36 39 30 150 147 80 85 138 28 58 43 73
Route #5: 131 118 99 45 149 139 72 133 156 129 108 103 34 128 163 4 110 120 13 171 66 63 57 188 19 105
Route #6: 64 25 183 136 167 123 177 148 98 141 70 185 18 84 153 180 61 32 40 76 90 42 100 8 56 130 109
Route #7: 112 169 78 22 77 86 125 137 151 174 48 54 126 181 41 152 87 186 146 71 52 101 47 5 176 12 24 97 143 95
Route #8: 135 55 91 9 114 65 20 53 154 189 140 124 187 27 15 3 96 59 62 179 68 102 168
Cost 16984.000000